99 59 87 57 43 97 13 
52 88 63 90 32 10 
83 45 8 46 84 17 60 89 
40 21 73 56 4 26 
27 69 30 51 71 65 66 20 70 1 
18 6 94 
31 62 19 11 64 49 48 
2 42 15 41 22 74 58 
53 
95 92 98 44 38 14 91 100 37 
28 76 33 81 9 35 34 68 
5 61 86 16 85 93 96 
82 36 47 7 
12 29 78 79 3 77 50 
72 75 23 67 39 25 55 54 24 80 
